23 12
69 47
71 17
52 109
90 3
22 84
84 5
79 25
100 28
20 102
81 40
31 26
3 102
32 177
1 61
27 137
1 169
44 38
78 3
34 79
68 36
27 178
17 117
60 60
99 27
21 11
55 39
19 52
99 21
22 65
50 47
3 94
24 74
81 69
4 42
15 20
42 43
14 40
35 144
4 175
18 81
18 3
86 5
51 53
36 86
41 1
20 134
3 143
15 110
10 2
